benchmarks_CP/INST_64x64/50/inst64x64_50_23.dzn
S=8;
start=[|
-1,	46,	61,	1,	7,	-1,	37,	-1,	-1,	-1,	-1,	63,	-1,	41,	52,	-1,	16,	18,	24,	-1,	10,	30,	42,	3,	56,	54,	-1,	62,	-1,	28,	-1,	14,	38,	22,	-1,	-1,	-1,	58,	-1,	-1,	-1,	23,	-1,	-1,	53,	-1,	-1,	48,	17,	-1,	39,	64,	45,	-1,	2,	26,	-1,	6,	55,	31,	-1,	59,	-1,	-1|
-1,	39,	-1,	-1,	5,	42,	34,	3,	56,	-1,	-1,	-1,	32,	61,	35,	23,	51,	-1,	52,	-1,	62,	64,	49,	-1,	63,	41,	10,	-1,	25,	-1,	-1,	-1,	4,	-1,	19,	57,	-1,	11,	-1,	17,	-1,	-1,	24,	-1,	-1,	29,	43,	7,	28,	8,	48,	-1,	-1,	54,	-1,	-1,	16,	46,	27,	-1,	37,	40,	-1,	36|
-1,	2,	51,	-1,	53,	-1,	-1,	16,	-1,	-1,	-1,	17,	-1,	58,	8,	21,	27,	-1,	-1,	31,	-1,	-1,	11,	-1,	-1,	49,	-1,	-1,	-1,	-1,	1,	64,	-1,	-1,	39,	-1,	10,	-1,	37,	-1,	19,	5,	-1,	47,	-1,	13,	-1,	-1,	14,	18,	23,	-1,	59,	57,	52,	12,	38,	-1,	35,	42,	61,	30,	-1,	-1|
-1,	64,	18,	-1,	-1,	-1,	-1,	48,	-1,	59,	46,	-1,	7,	14,	10,	13,	-1,	-1,	55,	44,	41,	-1,	4,	-1,	22,	35,	-1,	-1,	-1,	-1,	-1,	-1,	-1,	-1,	-1,	-1,	28,	15,	52,	-1,	31,	-1,	40,	3,	63,	-1,	-1,	39,	-1,	-1,	37,	33,	11,	53,	36,	43,	20,	-1,	-1,	58,	-1,	-1,	60,	-1|
43,	35,	-1,	28,	-1,	-1,	-1,	14,	-1,	-1,	64,	20,	54,	-1,	1,	44,	-1,	58,	-1,	-1,	-1,	-1,	47,	-1,	-1,	-1,	-1,	-1,	7,	13,	30,	-1,	24,	-1,	-1,	23,	60,	-1,	-1,	-1,	-1,	51,	25,	-1,	-1,	-1,	-1,	-1,	16,	-1,	42,	-1,	40,	3,	9,	32,	-1,	15,	53,	11,	62,	29,	-1,	-1|
-1,	36,	-1,	-1,	-1,	58,	-1,	22,	57,	5,	53,	-1,	-1,	31,	55,	50,	-1,	35,	-1,	-1,	-1,	-1,	-1,	23,	-1,	51,	-1,	-1,	39,	-1,	-1,	-1,	-1,	49,	-1,	-1,	64,	-1,	25,	43,	54,	-1,	-1,	-1,	16,	-1,	-1,	26,	62,	-1,	41,	-1,	-1,	21,	-1,	60,	48,	-1,	-1,	-1,	14,	47,	-1,	28|
-1,	-1,	-1,	-1,	23,	-1,	41,	38,	-1,	18,	33,	24,	39,	-1,	29,	-1,	-1,	54,	61,	37,	45,	-1,	5,	-1,	17,	4,	8,	43,	11,	-1,	-1,	46,	7,	-1,	40,	-1,	53,	35,	-1,	-1,	-1,	-1,	-1,	64,	58,	22,	10,	52,	47,	55,	-1,	-1,	50,	-1,	1,	13,	63,	-1,	12,	57,	26,	-1,	-1,	-1|
-1,	33,	40,	-1,	25,	-1,	47,	-1,	-1,	19,	2,	-1,	45,	-1,	-1,	-1,	57,	43,	39,	17,	48,	8,	-1,	60,	-1,	37,	21,	53,	58,	-1,	31,	55,	-1,	56,	-1,	32,	-1,	-1,	3,	26,	-1,	-1,	-1,	-1,	36,	-1,	14,	-1,	-1,	5,	63,	46,	49,	24,	-1,	-1,	51,	-1,	-1,	64,	-1,	10,	-1,	23|
-1,	-1,	-1,	60,	-1,	1,	33,	-1,	10,	-1,	61,	-1,	-1,	-1,	-1,	-1,	-1,	26,	-1,	-1,	-1,	-1,	15,	-1,	-1,	17,	-1,	16,	34,	20,	-1,	50,	48,	-1,	-1,	-1,	59,	-1,	56,	-1,	64,	13,	4,	-1,	-1,	-1,	21,	-1,	-1,	-1,	31,	-1,	43,	23,	-1,	-1,	-1,	27,	-1,	12,	54,	32,	-1,	-1|
7,	-1,	16,	-1,	-1,	-1,	6,	58,	-1,	-1,	-1,	-1,	-1,	-1,	59,	-1,	37,	55,	-1,	36,	30,	52,	-1,	32,	25,	-1,	-1,	-1,	31,	35,	53,	-1,	47,	-1,	49,	21,	-1,	-1,	-1,	-1,	-1,	-1,	-1,	-1,	39,	-1,	22,	-1,	46,	-1,	-1,	-1,	26,	1,	-1,	-1,	24,	-1,	45,	-1,	-1,	60,	61,	13|
55,	38,	-1,	-1,	24,	-1,	-1,	-1,	42,	44,	57,	56,	-1,	-1,	51,	-1,	54,	-1,	-1,	-1,	-1,	-1,	-1,	14,	4,	61,	-1,	32,	-1,	-1,	-1,	5,	-1,	-1,	29,	-1,	-1,	22,	-1,	-1,	-1,	19,	1,	-1,	-1,	34,	30,	-1,	18,	13,	7,	11,	52,	-1,	-1,	-1,	26,	50,	-1,	17,	10,	-1,	-1,	-1|
-1,	26,	13,	53,	20,	32,	-1,	2,	-1,	-1,	-1,	-1,	-1,	47,	-1,	-1,	39,	-1,	64,	3,	46,	-1,	-1,	21,	11,	-1,	-1,	-1,	9,	-1,	6,	19,	-1,	-1,	7,	62,	4,	-1,	63,	-1,	-1,	16,	-1,	54,	-1,	48,	-1,	-1,	-1,	56,	-1,	51,	-1,	40,	-1,	49,	-1,	52,	8,	22,	-1,	-1,	35,	59|
-1,	-1,	36,	29,	-1,	14,	43,	-1,	52,	-1,	-1,	-1,	50,	55,	-1,	-1,	-1,	7,	8,	-1,	56,	4,	-1,	-1,	-1,	-1,	-1,	-1,	10,	23,	-1,	-1,	-1,	-1,	-1,	-1,	-1,	53,	-1,	-1,	-1,	-1,	26,	-1,	-1,	60,	63,	6,	-1,	16,	-1,	2,	5,	41,	59,	35,	-1,	33,	-1,	-1,	-1,	25,	-1,	40|
-1,	-1,	8,	-1,	57,	19,	35,	-1,	-1,	3,	41,	-1,	62,	-1,	-1,	15,	10,	34,	17,	59,	-1,	29,	25,	63,	-1,	44,	22,	-1,	-1,	36,	-1,	7,	-1,	27,	-1,	1,	-1,	43,	42,	13,	9,	49,	-1,	50,	-1,	52,	32,	-1,	-1,	-1,	-1,	21,	-1,	-1,	-1,	-1,	14,	4,	-1,	-1,	-1,	-1,	-1,	-1|
28,	-1,	39,	-1,	34,	4,	-1,	-1,	53,	-1,	7,	22,	58,	2,	33,	31,	61,	11,	-1,	23,	-1,	44,	35,	50,	-1,	59,	43,	-1,	-1,	12,	54,	-1,	-1,	-1,	18,	-1,	46,	16,	38,	55,	-1,	20,	-1,	62,	25,	-1,	45,	5,	-1,	-1,	32,	24,	-1,	-1,	-1,	-1,	-1,	56,	-1,	-1,	48,	19,	-1,	41|
21,	-1,	5,	54,	31,	-1,	3,	-1,	32,	-1,	-1,	38,	63,	64,	48,	-1,	-1,	13,	-1,	20,	-1,	49,	43,	33,	37,	18,	-1,	-1,	-1,	-1,	56,	-1,	11,	-1,	60,	24,	41,	-1,	-1,	-1,	-1,	-1,	-1,	35,	61,	28,	-1,	59,	50,	-1,	10,	-1,	-1,	-1,	-1,	14,	-1,	47,	-1,	53,	7,	-1,	29,	58|
-1,	-1,	-1,	22,	-1,	2,	54,	-1,	-1,	61,	30,	29,	36,	-1,	-1,	6,	25,	33,	-1,	-1,	4,	-1,	-1,	57,	3,	31,	-1,	63,	41,	-1,	35,	-1,	45,	24,	-1,	-1,	39,	-1,	-1,	60,	46,	-1,	-1,	58,	-1,	-1,	-1,	15,	40,	10,	-1,	18,	14,	11,	16,	52,	55,	-1,	9,	-1,	-1,	5,	26,	-1|
-1,	37,	-1,	32,	49,	-1,	12,	44,	59,	-1,	-1,	26,	25,	-1,	2,	-1,	-1,	-1,	56,	-1,	39,	-1,	-1,	-1,	-1,	28,	-1,	24,	53,	-1,	57,	-1,	-1,	52,	54,	-1,	-1,	38,	10,	47,	20,	45,	-1,	29,	-1,	-1,	9,	14,	-1,	-1,	15,	3,	-1,	31,	-1,	-1,	-1,	8,	17,	6,	-1,	-1,	-1,	-1|
-1,	6,	-1,	13,	62,	-1,	-1,	-1,	-1,	8,	-1,	12,	5,	27,	-1,	17,	29,	-1,	19,	-1,	24,	-1,	-1,	-1,	52,	56,	-1,	50,	-1,	-1,	37,	9,	42,	30,	4,	51,	15,	14,	11,	46,	-1,	28,	63,	-1,	-1,	-1,	49,	3,	48,	-1,	-1,	-1,	-1,	-1,	64,	59,	34,	35,	-1,	43,	57,	7,	-1,	39|
42,	53,	-1,	38,	-1,	3,	29,	-1,	35,	41,	-1,	-1,	14,	-1,	-1,	-1,	-1,	-1,	-1,	51,	-1,	-1,	-1,	-1,	40,	64,	-1,	17,	-1,	45,	-1,	27,	61,	-1,	-1,	22,	13,	33,	-1,	7,	-1,	50,	55,	5,	-1,	18,	-1,	47,	57,	-1,	-1,	62,	-1,	-1,	-1,	21,	-1,	30,	-1,	-1,	-1,	37,	23,	-1|
40,	-1,	21,	64,	-1,	20,	61,	-1,	45,	60,	-1,	32,	33,	-1,	38,	-1,	-1,	23,	31,	-1,	27,	-1,	-1,	11,	39,	-1,	7,	49,	-1,	19,	-1,	-1,	-1,	-1,	58,	-1,	26,	-1,	-1,	-1,	-1,	-1,	17,	56,	-1,	-1,	34,	57,	-1,	-1,	22,	8,	-1,	37,	6,	-1,	3,	63,	-1,	-1,	59,	-1,	-1,	47|
26,	-1,	-1,	-1,	30,	36,	7,	35,	-1,	11,	-1,	-1,	20,	48,	64,	-1,	49,	-1,	-1,	52,	55,	-1,	-1,	13,	14,	-1,	29,	60,	-1,	-1,	23,	10,	-1,	-1,	57,	37,	-1,	-1,	16,	19,	-1,	-1,	41,	-1,	24,	44,	-1,	-1,	38,	-1,	-1,	-1,	-1,	-1,	47,	-1,	12,	-1,	21,	45,	42,	-1,	-1,	-1|
41,	5,	57,	-1,	-1,	-1,	-1,	10,	37,	-1,	28,	-1,	53,	-1,	7,	46,	48,	-1,	20,	-1,	15,	17,	-1,	-1,	-1,	-1,	-1,	-1,	-1,	22,	8,	11,	25,	-1,	43,	-1,	-1,	-1,	6,	-1,	33,	32,	-1,	42,	64,	-1,	39,	-1,	23,	4,	-1,	13,	55,	63,	26,	24,	60,	44,	49,	-1,	-1,	51,	19,	-1|
-1,	14,	-1,	-1,	-1,	-1,	9,	11,	15,	55,	21,	50,	34,	-1,	54,	-1,	28,	-1,	10,	1,	-1,	-1,	-1,	-1,	26,	-1,	-1,	-1,	-1,	-1,	-1,	-1,	8,	40,	56,	-1,	-1,	23,	-1,	-1,	7,	6,	-1,	48,	60,	19,	-1,	-1,	-1,	-1,	61,	29,	35,	45,	-1,	41,	33,	-1,	-1,	-1,	22,	38,	52,	25|
35,	-1,	-1,	56,	52,	-1,	39,	54,	-1,	-1,	58,	27,	-1,	-1,	-1,	-1,	-1,	5,	63,	4,	-1,	46,	48,	-1,	-1,	-1,	9,	26,	20,	8,	-1,	-1,	55,	53,	12,	-1,	-1,	37,	-1,	-1,	-1,	31,	-1,	-1,	22,	47,	-1,	-1,	-1,	-1,	-1,	41,	38,	51,	-1,	-1,	-1,	11,	-1,	34,	-1,	42,	15,	3|
45,	13,	25,	19,	-1,	63,	-1,	-1,	7,	-1,	-1,	64,	-1,	-1,	57,	-1,	-1,	51,	29,	54,	-1,	-1,	-1,	-1,	27,	22,	-1,	-1,	-1,	-1,	61,	58,	49,	31,	-1,	-1,	-1,	40,	-1,	39,	16,	11,	-1,	-1,	-1,	12,	26,	-1,	-1,	-1,	-1,	-1,	-1,	34,	37,	6,	-1,	17,	23,	-1,	-1,	43,	-1,	50|
-1,	-1,	43,	61,	2,	-1,	50,	-1,	-1,	-1,	13,	-1,	-1,	-1,	-1,	-1,	-1,	27,	15,	-1,	-1,	-1,	-1,	-1,	-1,	-1,	4,	-1,	-1,	-1,	-1,	56,	-1,	38,	25,	41,	29,	20,	1,	63,	28,	-1,	48,	-1,	-1,	-1,	18,	24,	-1,	9,	47,	22,	-1,	-1,	54,	31,	5,	39,	6,	-1,	-1,	12,	-1,	-1|
36,	9,	-1,	-1,	42,	8,	-1,	64,	41,	-1,	-1,	-1,	-1,	60,	25,	-1,	-1,	-1,	3,	-1,	-1,	-1,	-1,	-1,	-1,	-1,	-1,	-1,	-1,	55,	-1,	-1,	-1,	-1,	6,	-1,	-1,	47,	7,	-1,	-1,	-1,	53,	-1,	51,	62,	-1,	40,	-1,	49,	2,	63,	18,	50,	56,	27,	-1,	-1,	61,	19,	28,	-1,	54,	-1|
-1,	7,	23,	-1,	3,	49,	18,	26,	28,	-1,	55,	-1,	38,	-1,	15,	-1,	-1,	25,	-1,	45,	-1,	34,	-1,	8,	16,	47,	-1,	-1,	5,	-1,	50,	-1,	-1,	-1,	-1,	-1,	62,	46,	-1,	51,	29,	-1,	-1,	63,	32,	6,	60,	-1,	-1,	-1,	-1,	39,	44,	42,	11,	4,	-1,	-1,	33,	-1,	-1,	-1,	56,	-1|
-1,	31,	12,	-1,	47,	6,	-1,	40,	62,	21,	49,	52,	16,	-1,	63,	-1,	11,	10,	-1,	-1,	61,	41,	-1,	17,	-1,	32,	42,	-1,	-1,	18,	-1,	25,	-1,	-1,	-1,	13,	54,	27,	26,	-1,	14,	-1,	-1,	-1,	5,	45,	-1,	50,	-1,	15,	19,	-1,	-1,	-1,	57,	-1,	-1,	1,	-1,	-1,	51,	8,	-1,	-1|
-1,	15,	38,	5,	21,	-1,	-1,	30,	50,	12,	31,	-1,	10,	-1,	-1,	19,	47,	52,	60,	55,	-1,	-1,	26,	22,	-1,	63,	28,	54,	-1,	64,	34,	-1,	-1,	-1,	9,	45,	-1,	-1,	-1,	-1,	43,	-1,	27,	-1,	-1,	-1,	41,	33,	1,	17,	-1,	-1,	29,	-1,	8,	25,	40,	62,	-1,	35,	-1,	44,	32,	4|
44,	29,	-1,	-1,	58,	-1,	-1,	-1,	20,	24,	-1,	34,	-1,	-1,	-1,	-1,	19,	-1,	-1,	-1,	50,	-1,	53,	-1,	41,	6,	-1,	36,	40,	-1,	12,	51,	59,	-1,	10,	-1,	-1,	3,	-1,	35,	-1,	-1,	-1,	57,	52,	-1,	-1,	8,	26,	43,	-1,	-1,	-1,	-1,	-1,	-1,	2,	55,	-1,	14,	31,	-1,	48,	-1|
52,	40,	6,	33,	-1,	-1,	-1,	1,	2,	-1,	47,	-1,	-1,	-1,	-1,	35,	-1,	61,	-1,	10,	-1,	-1,	64,	-1,	42,	9,	41,	-1,	28,	25,	58,	-1,	29,	-1,	-1,	7,	-1,	12,	-1,	-1,	-1,	60,	59,	8,	-1,	55,	-1,	53,	15,	11,	27,	4,	23,	-1,	14,	51,	-1,	31,	16,	-1,	-1,	-1,	21,	30|
-1,	-1,	-1,	7,	-1,	-1,	60,	-1,	-1,	-1,	-1,	-1,	37,	5,	32,	-1,	-1,	63,	-1,	8,	57,	53,	20,	-1,	-1,	36,	-1,	-1,	61,	-1,	17,	-1,	-1,	15,	11,	-1,	-1,	51,	-1,	49,	22,	52,	23,	-1,	-1,	-1,	-1,	-1,	-1,	-1,	38,	-1,	31,	-1,	25,	-1,	-1,	-1,	-1,	26,	3,	-1,	9,	-1|
17,	49,	-1,	12,	39,	25,	-1,	-1,	-1,	57,	59,	-1,	64,	-1,	46,	-1,	32,	2,	37,	-1,	-1,	16,	44,	-1,	20,	-1,	-1,	31,	50,	47,	-1,	-1,	-1,	-1,	38,	-1,	30,	-1,	45,	-1,	13,	-1,	11,	7,	54,	-1,	24,	19,	-1,	35,	62,	61,	-1,	-1,	41,	28,	6,	-1,	36,	8,	-1,	55,	10,	22|
-1,	-1,	26,	3,	-1,	-1,	-1,	-1,	17,	-1,	-1,	-1,	-1,	4,	-1,	-1,	23,	-1,	35,	13,	-1,	-1,	18,	-1,	51,	-1,	-1,	-1,	16,	-1,	59,	29,	52,	62,	-1,	-1,	40,	61,	-1,	-1,	-1,	10,	-1,	49,	-1,	14,	57,	63,	-1,	19,	8,	-1,	47,	-1,	-1,	-1,	42,	12,	-1,	-1,	24,	-1,	-1,	-1|
-1,	18,	-1,	-1,	11,	-1,	32,	51,	-1,	-1,	-1,	16,	42,	3,	20,	-1,	-1,	46,	14,	-1,	-1,	-1,	9,	-1,	53,	62,	-1,	-1,	-1,	26,	-1,	-1,	-1,	59,	24,	-1,	-1,	2,	-1,	-1,	-1,	-1,	-1,	-1,	41,	-1,	-1,	61,	-1,	-1,	-1,	-1,	6,	58,	13,	-1,	-1,	-1,	-1,	-1,	43,	52,	5,	63|
-1,	41,	20,	27,	46,	-1,	2,	36,	-1,	-1,	8,	60,	23,	-1,	-1,	10,	4,	40,	11,	-1,	-1,	25,	-1,	-1,	12,	-1,	5,	-1,	-1,	-1,	39,	-1,	-1,	64,	31,	-1,	-1,	-1,	-1,	14,	-1,	-1,	9,	38,	-1,	-1,	3,	28,	-1,	-1,	-1,	-1,	-1,	33,	42,	55,	-1,	-1,	32,	-1,	-1,	-1,	-1,	62|
48,	-1,	-1,	-1,	-1,	-1,	44,	-1,	-1,	-1,	-1,	-1,	-1,	12,	61,	52,	-1,	42,	-1,	29,	59,	5,	55,	-1,	-1,	-1,	57,	64,	-1,	7,	22,	13,	9,	32,	-1,	-1,	8,	26,	41,	-1,	-1,	34,	-1,	-1,	15,	1,	-1,	-1,	2,	-1,	-1,	-1,	-1,	-1,	-1,	30,	35,	38,	-1,	-1,	39,	54,	18,	-1|
29,	61,	55,	59,	-1,	28,	-1,	-1,	-1,	7,	9,	36,	-1,	25,	53,	1,	3,	62,	-1,	47,	22,	-1,	24,	56,	-1,	-1,	-1,	-1,	-1,	11,	49,	4,	23,	13,	50,	-1,	42,	-1,	34,	-1,	30,	44,	-1,	-1,	-1,	-1,	31,	17,	-1,	48,	18,	26,	-1,	46,	32,	-1,	-1,	57,	60,	33,	58,	-1,	-1,	45|
-1,	-1,	54,	40,	-1,	-1,	-1,	-1,	1,	-1,	10,	23,	-1,	-1,	-1,	-1,	-1,	20,	-1,	-1,	-1,	31,	-1,	-1,	-1,	7,	-1,	-1,	-1,	-1,	14,	22,	-1,	-1,	-1,	-1,	37,	-1,	-1,	-1,	27,	-1,	56,	-1,	-1,	3,	48,	-1,	-1,	63,	-1,	36,	-1,	47,	24,	-1,	-1,	-1,	30,	13,	25,	21,	6,	-1|
11,	-1,	52,	42,	45,	48,	21,	-1,	-1,	-1,	17,	41,	-1,	33,	-1,	25,	40,	53,	22,	57,	26,	32,	6,	4,	-1,	-1,	44,	61,	15,	-1,	47,	24,	63,	-1,	36,	12,	-1,	-1,	43,	23,	-1,	2,	28,	37,	30,	20,	35,	64,	-1,	-1,	13,	-1,	19,	8,	46,	62,	-1,	16,	-1,	55,	1,	50,	34,	-1|
24,	-1,	60,	25,	-1,	-1,	-1,	63,	19,	-1,	20,	61,	40,	-1,	-1,	54,	-1,	-1,	-1,	14,	-1,	23,	-1,	-1,	55,	27,	-1,	51,	-1,	56,	28,	-1,	-1,	-1,	59,	49,	-1,	62,	-1,	1,	-1,	-1,	-1,	-1,	34,	9,	-1,	-1,	-1,	-1,	-1,	-1,	-1,	-1,	-1,	-1,	-1,	5,	-1,	41,	45,	-1,	-1,	-1|
23,	-1,	-1,	-1,	-1,	-1,	16,	12,	24,	-1,	35,	-1,	-1,	49,	5,	-1,	9,	-1,	59,	41,	-1,	48,	19,	43,	8,	33,	-1,	13,	26,	4,	-1,	39,	17,	7,	22,	29,	58,	-1,	30,	-1,	-1,	57,	54,	25,	-1,	61,	-1,	-1,	-1,	-1,	11,	40,	34,	55,	-1,	-1,	-1,	64,	2,	20,	-1,	56,	62,	-1|
18,	-1,	7,	35,	13,	-1,	-1,	32,	-1,	-1,	-1,	-1,	48,	53,	12,	4,	-1,	-1,	-1,	-1,	25,	-1,	34,	46,	-1,	23,	60,	-1,	-1,	-1,	9,	-1,	-1,	-1,	-1,	-1,	-1,	-1,	-1,	-1,	-1,	-1,	-1,	-1,	14,	-1,	50,	-1,	41,	28,	1,	49,	56,	52,	20,	-1,	8,	37,	-1,	51,	15,	-1,	-1,	19|
49,	-1,	53,	-1,	1,	26,	-1,	-1,	21,	-1,	29,	42,	2,	-1,	27,	34,	-1,	39,	-1,	24,	13,	-1,	17,	58,	-1,	-1,	38,	57,	52,	-1,	32,	40,	3,	51,	15,	46,	6,	28,	-1,	48,	23,	41,	-1,	19,	11,	31,	-1,	-1,	37,	64,	-1,	30,	-1,	-1,	44,	-1,	47,	9,	59,	-1,	-1,	-1,	-1,	43|
61,	-1,	-1,	30,	-1,	33,	-1,	6,	64,	16,	-1,	-1,	57,	18,	56,	-1,	15,	28,	44,	-1,	-1,	2,	50,	-1,	-1,	-1,	19,	25,	-1,	29,	-1,	48,	40,	8,	41,	42,	-1,	10,	9,	-1,	47,	43,	-1,	59,	7,	-1,	-1,	-1,	-1,	3,	-1,	-1,	-1,	39,	53,	22,	4,	-1,	-1,	-1,	17,	14,	-1,	-1|
31,	-1,	2,	39,	22,	-1,	28,	43,	13,	-1,	52,	7,	-1,	37,	45,	11,	-1,	-1,	-1,	60,	3,	56,	1,	61,	-1,	30,	50,	34,	62,	53,	41,	-1,	-1,	44,	-1,	-1,	25,	-1,	-1,	5,	63,	36,	-1,	40,	46,	-1,	8,	-1,	-1,	21,	-1,	9,	-1,	-1,	-1,	-1,	54,	-1,	-1,	-1,	18,	-1,	24,	48|
59,	3,	-1,	-1,	-1,	-1,	-1,	21,	33,	-1,	-1,	1,	-1,	-1,	-1,	-1,	2,	-1,	48,	-1,	-1,	-1,	-1,	19,	30,	26,	-1,	-1,	-1,	-1,	5,	54,	57,	-1,	-1,	38,	-1,	-1,	-1,	42,	62,	-1,	49,	-1,	23,	50,	-1,	-1,	-1,	-1,	36,	-1,	-1,	10,	-1,	16,	31,	40,	-1,	24,	6,	-1,	-1,	-1|
-1,	-1,	47,	31,	48,	9,	-1,	7,	40,	-1,	-1,	-1,	28,	15,	-1,	43,	-1,	17,	-1,	-1,	-1,	61,	-1,	-1,	-1,	12,	-1,	-1,	19,	24,	3,	-1,	22,	-1,	-1,	-1,	-1,	-1,	-1,	-1,	-1,	55,	38,	-1,	-1,	-1,	29,	51,	42,	50,	59,	-1,	-1,	5,	23,	37,	-1,	26,	46,	1,	-1,	58,	16,	34|
4,	43,	-1,	37,	15,	-1,	26,	33,	47,	-1,	63,	-1,	-1,	11,	42,	22,	5,	44,	50,	16,	38,	27,	39,	9,	32,	-1,	-1,	-1,	6,	-1,	-1,	60,	14,	21,	61,	-1,	2,	-1,	-1,	-1,	41,	24,	-1,	-1,	57,	-1,	52,	31,	-1,	-1,	20,	25,	64,	-1,	19,	45,	-1,	-1,	13,	-1,	-1,	18,	-1,	55|
-1,	54,	29,	58,	-1,	-1,	-1,	45,	46,	36,	-1,	-1,	-1,	23,	41,	64,	-1,	24,	-1,	63,	11,	14,	32,	-1,	-1,	43,	61,	-1,	27,	-1,	42,	-1,	-1,	-1,	51,	40,	-1,	7,	47,	-1,	-1,	8,	-1,	-1,	-1,	4,	6,	-1,	44,	60,	-1,	-1,	17,	30,	-1,	33,	52,	25,	-1,	-1,	-1,	35,	57,	-1|
53,	42,	32,	34,	-1,	-1,	-1,	25,	3,	-1,	-1,	-1,	52,	38,	4,	24,	-1,	-1,	-1,	-1,	36,	43,	-1,	7,	-1,	57,	18,	-1,	14,	50,	44,	-1,	10,	-1,	-1,	17,	35,	41,	-1,	-1,	39,	15,	5,	-1,	47,	-1,	27,	16,	-1,	58,	-1,	1,	-1,	-1,	-1,	-1,	-1,	-1,	-1,	61,	29,	11,	-1,	-1|
22,	-1,	35,	-1,	-1,	-1,	46,	57,	-1,	-1,	14,	25,	-1,	-1,	19,	37,	31,	-1,	-1,	53,	-1,	3,	-1,	42,	-1,	-1,	2,	-1,	-1,	-1,	-1,	-1,	15,	39,	52,	11,	-1,	-1,	-1,	18,	-1,	-1,	-1,	-1,	45,	58,	-1,	-1,	-1,	-1,	-1,	-1,	24,	26,	4,	-1,	-1,	7,	-1,	-1,	-1,	62,	49,	60|
-1,	-1,	-1,	-1,	-1,	44,	-1,	-1,	-1,	2,	-1,	-1,	-1,	-1,	17,	59,	-1,	-1,	25,	46,	-1,	-1,	51,	18,	10,	-1,	20,	41,	38,	-1,	64,	33,	-1,	50,	-1,	6,	-1,	-1,	-1,	45,	-1,	35,	34,	-1,	43,	-1,	19,	56,	-1,	-1,	3,	53,	13,	22,	39,	-1,	30,	-1,	14,	15,	-1,	27,	47,	-1|
-1,	-1,	19,	6,	-1,	-1,	64,	55,	27,	-1,	-1,	21,	18,	-1,	50,	7,	-1,	12,	-1,	28,	34,	-1,	-1,	-1,	-1,	15,	49,	-1,	22,	1,	-1,	8,	-1,	-1,	-1,	-1,	43,	30,	-1,	-1,	44,	53,	-1,	36,	-1,	25,	54,	-1,	-1,	46,	-1,	-1,	62,	2,	-1,	47,	-1,	-1,	-1,	48,	-1,	39,	-1,	-1|
1,	-1,	-1,	-1,	29,	17,	-1,	-1,	5,	-1,	3,	-1,	-1,	63,	-1,	58,	8,	48,	-1,	25,	14,	6,	61,	49,	54,	-1,	40,	46,	-1,	-1,	-1,	-1,	-1,	-1,	-1,	20,	-1,	-1,	-1,	53,	11,	22,	-1,	-1,	-1,	39,	-1,	44,	-1,	26,	51,	-1,	-1,	12,	27,	-1,	-1,	-1,	-1,	-1,	30,	-1,	50,	10|
-1,	4,	30,	52,	-1,	-1,	-1,	-1,	-1,	56,	48,	-1,	-1,	-1,	24,	-1,	-1,	-1,	57,	-1,	-1,	-1,	29,	-1,	-1,	60,	37,	7,	-1,	-1,	16,	35,	1,	46,	26,	-1,	63,	-1,	-1,	-1,	38,	3,	19,	61,	2,	-1,	-1,	34,	-1,	-1,	-1,	-1,	39,	-1,	50,	20,	59,	14,	5,	28,	27,	-1,	-1,	-1|
-1,	-1,	-1,	26,	-1,	7,	19,	41,	-1,	-1,	-1,	-1,	-1,	-1,	31,	57,	-1,	4,	40,	-1,	23,	-1,	3,	20,	-1,	24,	-1,	-1,	-1,	-1,	2,	42,	58,	28,	-1,	-1,	51,	-1,	35,	-1,	21,	59,	60,	-1,	-1,	27,	-1,	-1,	-1,	-1,	14,	-1,	-1,	38,	22,	56,	43,	-1,	-1,	-1,	-1,	45,	11,	-1|
-1,	16,	-1,	43,	-1,	-1,	-1,	-1,	-1,	-1,	-1,	-1,	-1,	-1,	-1,	-1,	17,	36,	-1,	-1,	53,	-1,	-1,	62,	44,	-1,	6,	28,	-1,	-1,	-1,	12,	-1,	-1,	-1,	-1,	21,	42,	-1,	41,	49,	-1,	45,	33,	31,	-1,	-1,	-1,	19,	59,	34,	55,	-1,	-1,	-1,	11,	-1,	-1,	63,	4,	2,	-1,	-1,	-1|
20,	-1,	-1,	-1,	64,	-1,	-1,	39,	-1,	46,	-1,	28,	-1,	-1,	60,	47,	52,	-1,	-1,	50,	-1,	7,	27,	10,	34,	-1,	-1,	9,	-1,	33,	26,	63,	2,	-1,	45,	56,	-1,	19,	15,	3,	-1,	-1,	-1,	-1,	-1,	-1,	51,	41,	24,	23,	30,	-1,	4,	18,	5,	8,	-1,	-1,	-1,	38,	49,	6,	12,	21|
3,	-1,	-1,	-1,	-1,	5,	-1,	-1,	49,	50,	-1,	-1,	17,	-1,	37,	-1,	56,	-1,	34,	-1,	-1,	-1,	59,	28,	-1,	11,	13,	22,	-1,	-1,	29,	-1,	-1,	57,	64,	10,	24,	-1,	-1,	-1,	12,	-1,	18,	-1,	-1,	-1,	62,	30,	-1,	-1,	-1,	-1,	-1,	7,	21,	53,	25,	-1,	26,	-1,	41,	-1,	-1,	-1|
34,	63,	-1,	51,	-1,	-1,	-1,	-1,	-1,	-1,	16,	54,	11,	7,	-1,	14,	-1,	-1,	43,	39,	42,	24,	22,	-1,	-1,	-1,	52,	-1,	32,	17,	25,	-1,	-1,	-1,	5,	-1,	-1,	50,	-1,	62,	-1,	-1,	-1,	13,	-1,	-1,	28,	10,	3,	-1,	35,	-1,	-1,	15,	49,	-1,	19,	36,	-1,	40,	55,	33,	44,	31|
38,	-1,	-1,	-1,	14,	54,	-1,	27,	23,	26,	42,	-1,	41,	-1,	-1,	20,	-1,	-1,	-1,	-1,	5,	-1,	46,	12,	-1,	-1,	-1,	-1,	-1,	61,	-1,	47,	30,	6,	-1,	-1,	7,	-1,	44,	4,	-1,	63,	-1,	-1,	-1,	64,	-1,	-1,	31,	-1,	-1,	28,	-1,	-1,	40,	-1,	32,	-1,	-1,	-1,	-1,	34,	3,	-1|];
