sudoku-ls/benchmarks_LEQ/INST_64x64/50/inst64x64_50_23.txt
8
1
12	46	-1	1	7	11	-1	20	-1	40	51	-1	43	41	-1	36	-1	-1	24	-1	10	30	42	3	-1	54	-1	-1	-1	28	27	14	-1	-1	44	-1	47	58	-1	-1	-1	23	-1	32	-1	49	-1	48	-1	25	39	64	-1	19	-1	-1	-1	6	55	-1	-1	-1	-1	-1
13	39	9	-1	5	-1	34	-1	56	-1	-1	15	-1	-1	35	-1	51	-1	52	-1	62	-1	49	53	63	-1	10	-1	25	60	-1	-1	4	-1	19	-1	55	11	-1	17	1	33	24	-1	50	29	-1	-1	28	-1	-1	-1	30	-1	31	-1	-1	46	27	2	37	40	22	36
-1	2	51	-1	53	-1	-1	16	26	4	25	17	-1	58	8	21	-1	56	-1	-1	29	-1	11	-1	36	49	-1	15	-1	-1	-1	-1	46	41	39	50	10	54	-1	6	-1	5	20	-1	-1	-1	55	-1	-1	-1	23	7	-1	-1	52	-1	38	-1	-1	-1	61	-1	43	-1
32	64	18	-1	26	29	-1	48	-1	59	-1	30	7	-1	10	-1	-1	-1	55	44	41	1	4	25	-1	35	-1	-1	47	42	45	-1	-1	-1	16	-1	28	-1	52	9	31	27	-1	3	-1	21	-1	39	-1	-1	-1	33	-1	53	36	43	-1	24	-1	-1	-1	-1	60	-1
-1	35	-1	-1	-1	-1	-1	-1	-1	49	-1	20	54	-1	1	-1	-1	58	-1	21	12	19	-1	38	57	50	-1	-1	7	13	-1	26	24	33	8	23	60	63	2	31	61	-1	25	18	6	-1	-1	-1	-1	-1	-1	-1	-1	3	-1	32	45	-1	-1	-1	-1	29	39	-1
-1	36	-1	-1	-1	58	30	-1	-1	-1	53	37	-1	31	-1	-1	7	-1	-1	2	40	33	-1	-1	9	51	-1	44	-1	-1	52	-1	12	-1	42	59	64	-1	25	-1	54	-1	-1	45	16	-1	11	-1	62	20	41	-1	-1	-1	-1	60	48	-1	18	56	14	-1	1	28
27	59	31	-1	23	-1	41	38	16	18	-1	24	-1	-1	-1	-1	-1	54	61	-1	45	-1	5	15	-1	4	-1	43	11	-1	-1	-1	7	48	-1	30	-1	35	-1	36	-1	-1	-1	-1	58	-1	-1	52	-1	55	-1	-1	50	-1	-1	13	-1	-1	-1	-1	-1	-1	-1	-1
-1	-1	40	-1	25	52	-1	-1	-1	-1	-1	-1	45	62	-1	-1	-1	-1	-1	17	48	8	-1	60	61	-1	21	-1	-1	-1	31	-1	18	56	27	32	-1	-1	3	26	-1	30	-1	-1	36	59	14	38	-1	5	-1	46	49	24	35	29	-1	41	-1	64	13	10	7	-1
46	30	22	60	9	1	-1	42	10	25	61	35	-1	-1	-1	-1	62	26	-1	58	-1	-1	-1	-1	-1	17	-1	16	34	-1	-1	50	48	-1	2	52	-1	5	-1	-1	-1	13	-1	-1	-1	7	21	-1	39	37	-1	45	43	-1	29	-1	49	27	-1	-1	-1	-1	-1	-1
7	48	16	10	-1	50	-1	-1	12	-1	-1	4	29	54	-1	-1	37	-1	5	-1	-1	-1	2	32	25	-1	27	8	-1	-1	53	28	47	9	49	21	-1	64	-1	15	42	56	-1	41	39	-1	22	-1	46	-1	57	-1	-1	-1	62	-1	-1	43	45	-1	44	60	-1	-1
-1	-1	41	-1	24	-1	-1	-1	-1	-1	57	-1	60	21	51	-1	-1	-1	-1	48	-1	-1	-1	14	4	61	46	32	-1	58	-1	5	35	-1	29	39	-1	22	31	-1	3	19	1	-1	-1	-1	30	43	18	-1	7	-1	52	-1	-1	-1	-1	-1	62	17	10	-1	-1	-1
-1	26	-1	-1	-1	32	27	2	-1	43	-1	5	-1	-1	-1	-1	-1	-1	64	3	46	-1	-1	-1	-1	-1	45	29	9	41	-1	-1	50	10	-1	-1	-1	-1	-1	-1	-1	-1	-1	54	17	-1	-1	18	-1	56	-1	51	61	40	-1	49	-1	52	8	-1	-1	31	-1	-1
64	45	-1	29	-1	14	43	-1	-1	17	-1	-1	50	-1	-1	49	24	7	8	42	56	-1	38	-1	48	-1	-1	-1	10	23	-1	-1	-1	-1	30	28	-1	53	58	-1	-1	47	26	31	-1	-1	-1	6	22	16	-1	-1	-1	-1	-1	-1	39	-1	-1	-1	46	-1	20	40
47	56	8	-1	57	19	-1	61	39	3	-1	-1	62	26	40	-1	10	34	17	-1	-1	-1	-1	-1	38	-1	22	2	-1	36	-1	7	-1	-1	-1	1	45	-1	42	13	9	49	-1	50	12	52	-1	23	-1	33	-1	21	58	-1	-1	48	-1	4	64	30	5	16	-1	-1
-1	-1	-1	-1	34	-1	-1	-1	-1	13	7	-1	-1	2	33	31	-1	11	51	23	60	44	35	-1	64	59	43	-1	49	-1	54	-1	6	26	-1	-1	-1	16	38	-1	8	-1	29	62	-1	10	45	5	27	47	-1	-1	-1	36	30	-1	-1	-1	-1	-1	-1	19	42	41
-1	-1	-1	54	-1	12	-1	-1	-1	-1	27	38	63	-1	48	45	-1	-1	-1	20	-1	49	-1	-1	37	-1	26	-1	51	39	56	52	-1	-1	60	24	-1	25	-1	-1	55	-1	-1	-1	61	-1	-1	-1	-1	-1	-1	-1	-1	-1	-1	-1	-1	47	-1	53	7	2	29	58
51	-1	27	-1	59	-1	-1	-1	-1	-1	30	-1	36	42	47	6	-1	33	-1	7	-1	50	-1	-1	3	31	-1	63	41	-1	35	-1	-1	24	-1	-1	39	21	-1	-1	-1	-1	13	-1	-1	43	-1	-1	40	10	49	18	-1	11	16	-1	55	-1	9	-1	64	5	26	56
60	-1	-1	-1	-1	-1	-1	-1	59	-1	-1	-1	-1	51	-1	63	-1	22	-1	-1	39	35	62	-1	33	-1	-1	-1	-1	-1	-1	-1	-1	-1	-1	-1	-1	38	10	47	20	45	-1	29	1	-1	-1	14	-1	36	-1	-1	-1	-1	43	-1	-1	-1	-1	6	50	-1	13	16
25	6	-1	13	-1	-1	55	23	-1	8	18	12	-1	-1	16	17	29	-1	19	61	24	40	36	45	52	-1	-1	50	1	38	37	-1	-1	-1	4	51	15	-1	-1	-1	26	28	-1	10	-1	53	49	3	-1	-1	-1	-1	-1	60	64	-1	34	35	41	-1	57	7	58	39
-1	-1	-1	38	8	-1	29	24	-1	41	-1	58	14	-1	49	56	46	-1	-1	51	44	63	60	-1	-1	-1	-1	17	4	-1	-1	27	61	-1	-1	-1	-1	-1	32	7	-1	50	-1	5	59	-1	16	-1	-1	-1	-1	-1	-1	-1	-1	21	-1	30	-1	-1	11	37	-1	20
-1	52	-1	64	-1	20	61	4	-1	-1	-1	-1	33	13	38	9	-1	23	-1	-1	-1	-1	41	11	39	-1	-1	-1	-1	-1	-1	15	-1	-1	58	-1	-1	-1	-1	50	51	-1	-1	-1	-1	-1	-1	-1	30	1	22	-1	46	37	6	-1	-1	63	-1	29	-1	48	14	47
26	28	-1	50	-1	-1	7	-1	43	-1	4	-1	-1	-1	-1	-1	-1	3	58	52	-1	9	-1	-1	14	46	-1	-1	59	-1	23	10	5	-1	57	-1	34	-1	16	19	25	62	-1	-1	-1	44	-1	54	38	53	-1	56	51	32	47	17	12	-1	21	-1	-1	-1	27	61
-1	-1	57	-1	-1	47	45	10	-1	-1	-1	-1	-1	1	-1	46	-1	-1	-1	34	15	-1	21	-1	2	-1	12	58	30	-1	-1	-1	-1	35	43	-1	36	9	-1	-1	-1	32	-1	42	64	38	-1	-1	23	-1	50	-1	-1	-1	-1	24	-1	-1	49	62	40	-1	-1	-1
-1	14	63	46	-1	43	9	-1	15	55	-1	50	-1	57	54	62	-1	30	-1	-1	37	-1	16	-1	26	-1	51	20	-1	32	-1	-1	-1	40	56	3	-1	-1	59	64	7	6	31	-1	60	-1	4	-1	-1	27	-1	29	-1	45	-1	-1	33	53	24	-1	22	38	-1	-1
-1	32	10	-1	-1	-1	-1	54	-1	-1	58	-1	1	30	23	61	-1	5	63	4	2	-1	-1	6	62	19	-1	-1	20	8	-1	45	55	53	12	-1	-1	-1	-1	44	-1	-1	21	-1	-1	-1	-1	-1	13	-1	-1	-1	38	-1	-1	40	57	11	-1	-1	-1	-1	15	-1
45	-1	25	19	41	-1	-1	59	-1	-1	-1	64	-1	-1	-1	48	42	51	-1	-1	33	62	14	24	-1	22	53	1	-1	-1	61	-1	-1	31	21	2	-1	-1	-1	39	-1	11	44	-1	-1	12	-1	35	-1	-1	28	10	-1	34	37	-1	18	17	-1	-1	-1	43	-1	50
57	-1	-1	61	2	53	50	17	-1	42	-1	59	3	-1	-1	51	-1	27	15	32	-1	58	37	-1	-1	-1	4	-1	60	52	-1	-1	64	38	25	-1	-1	20	-1	63	28	-1	48	34	-1	23	18	-1	-1	9	-1	-1	-1	-1	-1	31	5	39	-1	10	16	12	30	49
-1	9	-1	24	-1	8	11	64	41	-1	43	14	-1	-1	-1	-1	-1	57	-1	-1	-1	-1	31	-1	29	-1	-1	-1	-1	-1	33	44	-1	-1	6	15	-1	47	-1	30	10	-1	-1	-1	-1	62	38	-1	52	49	2	63	18	-1	56	27	-1	-1	-1	-1	28	13	54	-1
-1	-1	-1	48	-1	49	18	26	-1	-1	55	-1	-1	-1	-1	-1	1	25	36	-1	-1	34	30	-1	-1	-1	31	-1	-1	-1	50	-1	43	58	14	-1	62	-1	19	51	29	-1	-1	63	-1	6	60	-1	20	-1	53	39	-1	42	11	-1	-1	-1	-1	-1	-1	-1	56	-1
-1	31	12	-1	47	6	22	-1	-1	21	-1	-1	-1	44	-1	-1	11	-1	-1	56	-1	41	23	-1	43	-1	-1	-1	-1	18	38	25	60	-1	34	-1	-1	-1	-1	24	-1	-1	39	-1	5	-1	-1	-1	-1	15	-1	48	3	-1	57	58	-1	-1	-1	59	-1	8	-1	-1
-1	15	38	5	21	46	-1	30	-1	12	31	-1	-1	-1	-1	-1	-1	52	60	55	-1	-1	26	-1	-1	-1	-1	-1	3	-1	-1	-1	-1	23	-1	-1	-1	-1	-1	16	-1	-1	-1	20	42	-1	41	33	-1	17	-1	59	-1	61	-1	25	-1	-1	-1	-1	-1	44	32	-1
44	29	-1	-1	58	-1	1	-1	20	24	54	34	-1	-1	11	-1	19	49	-1	-1	-1	13	-1	39	-1	-1	-1	-1	-1	30	-1	51	-1	42	-1	18	56	-1	-1	-1	37	61	7	57	-1	-1	25	8	26	43	-1	32	-1	-1	45	23	-1	-1	-1	14	31	63	48	-1
52	40	-1	33	63	-1	-1	-1	2	-1	47	-1	22	-1	-1	35	-1	-1	-1	10	-1	26	64	54	-1	-1	-1	38	28	25	-1	-1	29	5	-1	7	-1	-1	36	37	-1	60	59	-1	48	55	-1	53	-1	-1	27	-1	23	56	14	-1	13	-1	-1	44	34	17	-1	-1
-1	10	64	7	-1	-1	60	47	-1	-1	-1	-1	37	5	-1	55	34	63	-1	8	-1	53	-1	30	24	36	35	33	61	-1	-1	-1	56	-1	-1	43	18	-1	-1	49	-1	-1	23	-1	62	-1	-1	-1	-1	-1	38	-1	-1	-1	-1	-1	-1	-1	-1	26	3	28	-1	-1
-1	-1	56	-1	-1	-1	42	-1	-1	-1	-1	43	-1	-1	46	26	32	2	37	27	51	-1	-1	-1	20	-1	15	-1	-1	47	-1	3	33	1	38	4	30	-1	-1	-1	13	18	11	-1	-1	-1	24	19	21	-1	62	61	-1	-1	41	-1	-1	48	36	8	-1	55	10	-1
-1	-1	26	-1	-1	-1	31	-1	-1	-1	-1	-1	-1	4	44	-1	-1	-1	-1	13	-1	39	-1	-1	51	2	30	-1	-1	46	-1	29	52	62	-1	-1	-1	-1	53	-1	32	10	36	49	-1	14	-1	63	34	19	-1	5	47	-1	-1	54	-1	-1	-1	-1	-1	20	-1	-1
-1	-1	37	45	11	38	-1	51	34	33	15	16	42	3	20	30	-1	46	14	-1	28	-1	-1	-1	-1	62	56	-1	23	26	-1	1	44	-1	-1	27	-1	2	54	-1	4	39	-1	12	41	-1	-1	61	-1	7	40	57	-1	-1	-1	10	-1	49	-1	-1	-1	-1	5	-1
58	41	20	-1	46	30	-1	36	-1	-1	-1	-1	-1	24	13	10	4	40	11	6	17	-1	-1	-1	-1	-1	5	18	-1	-1	-1	37	-1	-1	-1	35	-1	-1	-1	14	-1	-1	-1	-1	-1	16	3	28	-1	44	52	-1	-1	33	-1	-1	61	59	32	-1	56	-1	-1	-1
-1	-1	-1	-1	19	62	-1	-1	-1	-1	45	-1	31	-1	-1	-1	50	-1	33	-1	-1	5	-1	-1	60	-1	-1	-1	21	-1	-1	13	-1	-1	47	-1	-1	-1	-1	-1	58	-1	-1	-1	15	-1	56	25	-1	-1	-1	17	37	-1	3	30	35	38	-1	46	-1	54	18	-1
-1	-1	-1	-1	35	-1	5	-1	-1	-1	9	36	21	-1	-1	-1	3	-1	-1	-1	-1	38	-1	-1	-1	-1	-1	27	-1	11	49	-1	23	13	50	16	-1	-1	34	10	-1	44	-1	51	40	-1	-1	17	-1	-1	-1	-1	20	46	32	-1	-1	57	60	33	-1	-1	-1	-1
9	-1	-1	-1	4	41	17	29	-1	-1	-1	23	8	-1	28	32	-1	-1	-1	62	18	31	33	51	-1	7	-1	11	64	-1	14	22	-1	-1	-1	-1	-1	-1	-1	-1	27	-1	56	15	49	-1	-1	42	43	63	-1	36	57	-1	-1	2	44	61	-1	13	25	21	-1	12
-1	-1	52	42	-1	48	-1	5	31	-1	17	41	-1	-1	3	25	40	53	22	57	-1	-1	6	-1	-1	58	-1	-1	-1	49	47	-1	63	-1	36	12	38	56	43	23	-1	-1	-1	37	-1	20	-1	64	51	-1	-1	54	-1	8	-1	62	-1	16	39	55	1	-1	-1	7
24	-1	60	-1	-1	15	38	63	19	22	20	-1	40	43	36	-1	-1	64	-1	14	8	-1	-1	37	55	27	3	51	12	-1	28	-1	-1	-1	-1	49	16	62	4	-1	-1	21	-1	39	34	9	-1	-1	-1	-1	17	-1	7	-1	-1	-1	-1	5	57	41	-1	-1	31	46
-1	51	3	14	50	37	16	-1	24	-1	-1	-1	15	49	-1	-1	-1	-1	59	41	63	-1	-1	43	8	-1	-1	-1	26	4	-1	39	17	7	22	-1	-1	45	30	-1	18	-1	-1	-1	-1	-1	44	1	32	31	11	40	-1	-1	-1	42	28	64	-1	-1	-1	-1	62	-1
-1	-1	-1	35	13	-1	-1	-1	-1	62	39	44	48	-1	12	-1	-1	-1	27	-1	-1	36	34	46	31	-1	-1	42	-1	10	9	43	21	-1	33	-1	-1	24	55	2	5	-1	22	6	14	26	50	45	-1	28	1	49	56	52	20	-1	-1	-1	-1	51	15	3	40	-1
49	8	-1	55	1	26	-1	-1	-1	63	-1	-1	2	50	-1	34	-1	-1	-1	-1	-1	-1	-1	-1	5	45	38	-1	-1	54	-1	40	-1	-1	15	46	6	28	-1	-1	-1	-1	16	19	11	-1	12	-1	37	-1	-1	-1	25	-1	44	18	47	-1	59	-1	33	22	-1	-1
61	34	46	-1	36	33	-1	-1	64	-1	26	-1	-1	-1	-1	38	-1	28	-1	-1	54	2	50	5	1	20	19	-1	37	29	21	-1	-1	-1	-1	42	-1	10	-1	-1	47	43	52	59	7	24	13	-1	45	-1	60	23	-1	39	-1	22	-1	-1	-1	27	-1	-1	-1	35
-1	-1	2	39	-1	-1	28	43	-1	14	-1	-1	-1	-1	-1	-1	12	-1	47	60	3	56	-1	61	6	-1	50	-1	62	53	41	17	-1	44	35	19	-1	-1	64	5	-1	36	-1	40	-1	51	8	4	-1	-1	-1	9	-1	-1	-1	15	-1	-1	38	-1	18	-1	-1	-1
-1	3	-1	41	28	39	14	-1	-1	53	-1	1	61	20	-1	29	2	47	48	22	52	15	56	19	-1	26	25	4	-1	34	-1	-1	57	-1	-1	-1	9	8	-1	42	-1	7	-1	11	23	50	-1	-1	35	32	36	43	-1	-1	18	-1	-1	-1	-1	-1	6	64	45	44
-1	20	47	-1	-1	9	8	7	-1	10	6	57	-1	15	39	-1	60	17	-1	33	49	61	13	-1	-1	12	-1	56	-1	-1	3	53	22	-1	-1	64	-1	-1	27	-1	-1	-1	-1	14	-1	63	-1	51	42	-1	-1	-1	-1	-1	23	37	-1	-1	-1	1	-1	58	-1	34
-1	-1	1	-1	-1	-1	-1	33	47	-1	-1	8	12	11	-1	22	-1	-1	-1	16	38	-1	-1	9	32	-1	62	35	-1	-1	-1	60	-1	21	-1	58	2	34	-1	-1	41	-1	-1	-1	-1	-1	-1	-1	-1	-1	-1	-1	64	-1	-1	45	53	-1	-1	-1	36	18	59	55
2	54	-1	-1	-1	-1	-1	45	46	36	-1	13	-1	-1	-1	-1	-1	-1	62	63	-1	14	32	-1	-1	43	61	-1	27	-1	-1	16	53	-1	51	-1	-1	7	47	-1	-1	-1	-1	-1	-1	4	6	-1	44	-1	21	31	17	30	-1	-1	52	25	28	50	9	-1	57	-1
53	-1	32	34	-1	-1	13	25	3	-1	-1	-1	-1	38	-1	24	64	-1	-1	40	-1	43	54	-1	-1	-1	18	-1	14	50	44	31	-1	20	37	17	35	-1	49	59	39	-1	-1	26	-1	-1	-1	-1	12	58	55	1	9	-1	-1	63	22	23	-1	61	-1	-1	-1	2
22	50	-1	16	27	40	-1	57	51	-1	-1	25	44	-1	19	37	-1	41	30	-1	20	3	10	42	-1	55	-1	47	17	63	36	-1	15	-1	52	-1	-1	13	-1	18	-1	-1	-1	21	-1	58	61	-1	8	-1	29	6	24	-1	-1	34	56	7	-1	5	12	-1	49	60
-1	-1	62	36	61	44	49	-1	55	2	-1	48	26	-1	-1	59	58	37	25	-1	-1	-1	51	-1	10	29	-1	-1	-1	-1	-1	33	31	-1	-1	-1	23	-1	-1	45	-1	35	-1	60	-1	-1	19	56	-1	57	3	53	-1	-1	-1	7	30	54	14	-1	63	-1	-1	-1
-1	-1	19	6	-1	24	-1	55	-1	31	-1	21	-1	35	-1	7	-1	12	-1	28	-1	-1	-1	29	-1	15	-1	-1	22	1	40	-1	26	16	-1	-1	43	-1	-1	-1	-1	-1	-1	-1	13	25	-1	-1	-1	-1	-1	-1	-1	-1	51	-1	17	20	-1	-1	4	-1	-1	-1
-1	24	42	-1	-1	-1	-1	28	-1	-1	-1	55	-1	63	-1	58	8	48	-1	25	14	-1	61	-1	-1	-1	40	46	-1	-1	-1	41	-1	43	-1	20	33	-1	-1	-1	11	-1	35	-1	37	-1	7	44	-1	-1	-1	47	-1	12	-1	-1	-1	-1	-1	-1	-1	-1	50	10
-1	4	-1	-1	-1	55	-1	31	25	-1	-1	10	51	40	-1	12	33	45	57	64	32	-1	29	-1	-1	-1	-1	7	43	62	16	35	1	-1	-1	47	63	49	22	54	-1	-1	-1	-1	2	8	-1	34	-1	-1	-1	-1	39	13	-1	20	-1	-1	5	-1	27	-1	17	-1
-1	-1	49	-1	12	-1	-1	41	29	-1	-1	-1	6	-1	31	-1	-1	4	-1	-1	23	-1	3	-1	-1	24	64	48	-1	-1	-1	-1	58	28	32	36	-1	17	35	-1	21	59	60	16	9	27	-1	46	-1	-1	14	37	-1	38	22	56	43	13	52	-1	47	-1	11	-1
-1	-1	50	43	32	61	-1	-1	9	38	22	-1	-1	-1	30	27	17	36	1	15	-1	47	58	62	-1	3	-1	28	-1	14	-1	12	37	25	-1	8	-1	-1	60	-1	49	-1	45	-1	-1	-1	5	20	19	-1	-1	55	48	29	-1	11	7	18	63	-1	2	46	-1	-1
-1	-1	59	57	-1	35	-1	39	-1	46	-1	-1	13	-1	-1	-1	52	-1	-1	50	16	7	27	-1	34	1	58	9	36	-1	26	63	2	11	45	-1	14	-1	-1	3	-1	25	42	-1	55	40	51	41	-1	23	30	-1	4	18	-1	8	-1	-1	-1	-1	-1	-1	-1	21
-1	-1	44	47	33	5	-1	46	49	-1	1	45	-1	-1	-1	2	-1	-1	34	-1	9	-1	59	-1	15	11	13	22	55	27	29	20	39	57	64	-1	24	-1	-1	-1	-1	14	18	23	-1	32	62	30	-1	-1	43	-1	-1	7	21	53	25	-1	-1	-1	-1	-1	8	42
34	63	-1	-1	-1	21	58	8	4	-1	-1	54	11	-1	18	14	-1	-1	-1	39	-1	-1	-1	-1	23	53	-1	59	-1	17	25	30	-1	29	-1	-1	-1	50	-1	62	6	48	47	-1	56	-1	-1	10	-1	-1	-1	60	1	-1	49	-1	19	36	-1	-1	55	33	-1	-1
-1	25	-1	2	14	-1	36	27	23	-1	42	53	-1	59	43	-1	-1	-1	21	-1	-1	-1	-1	12	-1	-1	39	-1	-1	-1	10	-1	-1	-1	48	-1	7	52	-1	-1	15	63	50	-1	29	-1	1	58	-1	62	-1	-1	-1	17	-1	57	32	51	22	16	35	34	-1	9
64 
48 23 57 1
57 19 18 15
58 42 23 12
39 4 60 60
55 1 59 30
23 39 43 50
39 30 48 12
4 4 26 39
3 13 57 4
31 13 5 7
58 22 14 4
55 2 21 42
46 21 30 36
4 14 31 1
52 55 58 64
48 53 53 48
6 4 30 24
14 64 10 16
40 25 28 60
11 54 17 39
57 15 33 63
1 34 40 21
35 61 45 26
48 63 31 51
35 6 51 52
50 58 52 17
23 48 32 6
24 17 50 13
17 12 37 57
5 31 48 26
37 24 18 54
21 12 50 61
7 11 64 53
25 60 57 10
41 25 27 21
22 6 5 17
29 1 31 59
9 45 10 52
23 47 51 23
15 28 20 25
2 26 14 11
39 18 21 29
50 16 5 1
17 9 19 51
22 60 30 46
18 57 49 39
26 13 3 44
19 49 24 44
56 27 57 24
16 49 56 15
39 64 62 22
48 11 39 16
59 47 56 42
14 51 35 45
18 27 20 43
57 59 15 58
21 48 35 10
43 55 15 13
58 57 48 49
62 2 7 6
44 46 15 17
57 57 30 9
13 47 31 26
52 16 60 63
